1078
1662
3516
2706
578
1040
3341
1348
3995
3839
3588
3237
3025
2276
1931
720
2010
495
1947
2024
4270
3503
1793
858
1245
2940
3860
2616
3237
2246
986
907
1749
570
1968
2326
1359
3263
2834
639
2620
3121
1124
2491
2907
596
301
1658
861
3858
824
1165
4295
2474
970
3856
4312
706
3602
2615
1399
3501
2594
4186
2312
2865
1288
1705
1713
3002
1544
3847
1117
2522
2302
3169
2153
3393
2469
2029
2955
663
2103
1150
2739
3664
377
2342
2754
530
2838
3038
566
1632
3030
1675
3007
4054
3347
2919
